data;
param N:=5;
param P:=4;

param addlinks:=2;

set ch[1]:=2,3;
set ch[2]:=4;
set ch[3]:=1,4;
set ch[4]:=1;
set ch[5]:=4,1;

param connect: 	1	2	3	4	5:=
1				0	0	0	0	1
2				0	0	0	0	1
3				0	0	0	0	0
4				0	0	0	0	0
5				1	1	0	0	0;
end;
